p cnf 31
-1 -10
-2 -11
-3 7
-4 -1
-4 -2
1 2 4
-5 -3
-5 4
3 -4 5
-6 1
-6 -2
-1 2 6
-7 1
-7 2
-1 -2 7
-8 -1
-8 2
1 -2 8
-9 -6
-9 -8
6 8 9
-10 -5
-10 9
5 -9 10
-11 -3
-11 -6
3 6 11
-12 1
-12 3
-1 -3 12
12
